(set-info :Origin "This instance was generated by: BanditFuzz-- an RL fuzzer for SMT solvers" )
(set-info :Author "Joe Scott, Fed Mora, Vijay Ganesh" )
(set-info :Contact "Joe Scott, joseph.scott@uwaterloo.ca")
(set-logic QF_BV)
(declare-const bool_0 Bool)
(declare-const bool_1 Bool)
(declare-const bool_2 Bool)
(declare-const bool_3 Bool)
(declare-const bool_4 Bool)
(declare-const bv_0 (_ BitVec 32))
(declare-const bv_1 (_ BitVec 32))
(declare-const bv_2 (_ BitVec 32))
(declare-const bv_3 (_ BitVec 32))
(declare-const bv_4 (_ BitVec 32))
(assert (bvuge (bvsrem (bvnor bv_1 bv_1) (bvsub #x8f2a069a  #xbbef7e72 )) (bvshl (bvnand bv_4 bv_3) (bvxnor bv_2 bv_1))))
(assert (bvuge (bvudiv (bvshl bv_0 #x4ed7772e ) (bvmul #xf5b64f58  bv_4)) (bvnor (bvsmod #xc7d63f98  bv_1) (bvor #x134e9c49  bv_4))))
(assert (bvslt (bvmul (bvnand bv_1 bv_4) (bvand #x60dbc6fa  #x777776ae )) (bvsrem (bvnand bv_2 #x37834225 ) (bvudiv bv_4 bv_4))))
(assert (bvsgt (bvor (bvsub #x8fe1e490  #x7f843ef3 ) (bvsdiv #x0ccf467e  bv_3)) (bvsmod (bvsdiv bv_3 #xd0611a5c ) (bvashr bv_1 #xfca6b349 ))))
(assert (and (bvsle (bvxnor #x09c739b9  bv_3) (bvmul #x0a792eda  #x79cad500 )) (bvslt (bvsrem bv_2 bv_0) (bvor bv_4 bv_0))))
(check-sat)
(exit)
